pseudo-Boolean proof version 1.2
f 41
o x7 x9 x12 ~x1 ~x2 ~x3 ~x4 ~x5 ~x6 ~x8 ~x10 ~x11
u 1 ~x12 1 ~x7 >= 1 ;
u 1 ~x12 >= 1 ;
u 1 ~x11 1 ~x10 >= 1 ;
u 1 ~x11 >= 1 ;
o x1 x2 x5 x8 ~x3 ~x4 ~x6 ~x7 ~x9 ~x10 ~x11 ~x12
u 1 ~x8 >= 1 ;
u >= 1 ;
c -1
